# Solution for model GasLib-40
# Objective value = 1.0627051462566534e+01
loadshed[innode_1] 0
loadshed[innode_2] 0
loadshed[innode_3] 0
loadshed[innode_4] 0
loadshed[innode_5] 0
loadshed[innode_6] 0
loadshed[innode_7] 0
loadshed[innode_8] 0
loadshed[source_1] -3.3779914595057980e-01
loadshed[source_2] 6.3608079193369416e-02
loadshed[source_3] 3.4141247728253166e-01
loadshed[sink_1] 0
loadshed[sink_2] 0
loadshed[sink_3] 0
loadshed[sink_4] 0
loadshed[sink_5] 0
loadshed[sink_6] 0
loadshed[sink_7] 0
loadshed[sink_8] 0
loadshed[sink_9] 0
loadshed[sink_10] 0
loadshed[sink_11] 0
loadshed[sink_12] 6.4980696841171159e-01
loadshed[sink_13] 0
loadshed[sink_14] 0
loadshed[sink_15] 0
loadshed[sink_16] 0
loadshed[sink_17] 0
loadshed[sink_18] 0
loadshed[sink_19] 0
loadshed[sink_20] 0
loadshed[sink_21] 0
loadshed[sink_22] 0
loadshed[sink_23] 0
loadshed[sink_24] 0
loadshed[sink_25] 0
loadshed[sink_26] 0
loadshed[sink_27] 0
loadshed[sink_28] 0
loadshed[sink_29] 0
flow[source_1,sink_3] 2.1149303859420104e+02
flow[innode_1,sink_16] 1.6354166666666970e+01
flow[innode_6,sink_13] 1.0362882259283957e+01
flow[sink_13,sink_14] -5.9912844073827110e+00
flow[sink_14,sink_10] -2.2345451074049379e+01
flow[sink_25,sink_26] 1.7150057376059510e+02
flow[sink_26,sink_9] 1.2176007799325120e+02
flow[sink_9,sink_18] 1.0540591132658453e+02
flow[sink_26,sink_4] 3.3386329100677187e+01
flow[sink_4,sink_20] -1.7180318273284570e+01
flow[sink_18,sink_6] 8.9051744659917858e+01
flow[sink_25,innode_8] -1.7878470526086465e+02
flow[sink_6,sink_7] 3.9989244659916949e+01
flow[sink_6,sink_22] 3.2708333333333641e+01
flow[sink_7,sink_24] 3.8435448537433473e+01
flow[sink_22,sink_1] 1.6354166666666970e+01
flow[sink_24,sink_21] 22.0812818707668
flow[sink_21,sink_12] 5.7271152041001336e+00
flow[sink_7,sink_5] -1.4800370544182741e+01
flow[sink_5,sink_17] -3.1154537210849412e+01
flow[sink_17,sink_4] -3.4212480707295072e+01
flow[sink_17,sink_8] -1.3296223170220856e+01
flow[sink_3,sink_23] 16.3541666666697
flow[sink_8,sink_20] -2.9650389836887541e+01
flow[sink_25,sink_20] 6.3184874776838683e+01
flow[sink_25,sink_15] -82.6177922025192
flow[sink_15,sink_29] 0
flow[sink_29,sink_28] 1.6354166666667879e+01
flow[sink_29,sink_2] 1.1532612553585254e+02
flow[sink_2,sink_15] 9.8971958869185869e+01
flow[sink_29,innode_7] -1.4803445886918712e+02
flow[innode_4,sink_19] 0
flow[sink_19,innode_3] 0
flow[innode_4,innode_5] 1.0411628440738309e+02
flow[sink_27,innode_5] -1.0411628440738309e+02
flow[sink_27,sink_19] 87.7621177407165
flow[sink_10,sink_11] 3.2708333333333641e+01
flow[sink_10,innode_2] -7.1407951074049834e+01
flow[sink_10,innode_3] 0
flow[innode_6,sink_25] -1.0362882259283957e+01
flow[sink_11,innode_1] 1.6354166666666970e+01
flow[sink_19,innode_2] 7.1407951074049834e+01
flow[source_3,innode_4] 1.0411628440738309e+02
flow[source_2,innode_7] 1.4803445886918712e+02
flow[sink_3,innode_8] 1.7878470526086465e+02
pressure[innode_1] 7.4267469034541165e+01
pressure[innode_2] 78.1933754809053
pressure[innode_3] 78.1933754809053
pressure[innode_4] 81.01325
pressure[innode_5] 8.0941633329515923e+01
pressure[innode_6] 7.3408668806923231e+01
pressure[innode_7] 81.01325
pressure[innode_8] 8.0306309565248753e+01
pressure[source_1] 81.01325
pressure[source_2] 81.01325
pressure[source_3] 81.01325
pressure[sink_1] 4.5749404821522582e+01
pressure[sink_2] 7.4132567236325585e+01
pressure[sink_3] 8.0306309565248753e+01
pressure[sink_4] 5.7085159824128951e+01
pressure[sink_5] 5.3456883792918752e+01
pressure[sink_6] 4.7850482431909953e+01
pressure[sink_7] 4.7301525422661769e+01
pressure[sink_8] 56.2793726666149
pressure[sink_9] 5.4042329191659363e+01
pressure[sink_10] 7.4419170342144710e+01
pressure[sink_11] 7.4267469034541165e+01
pressure[sink_12] 1.0132500000000007e+00
pressure[sink_13] 73.3515399688263
pressure[sink_14] 7.3362261882617915e+01
pressure[sink_15] 7.3809445603686086e+01
pressure[sink_16] 7.3245819199723485e+01
pressure[sink_17] 5.5777671623664084e+01
pressure[sink_18] 5.0228429156217686e+01
pressure[sink_19] 78.1933754809053
pressure[sink_20] 5.8345587856777193e+01
pressure[sink_21] 3.0512710358548896e+00
pressure[sink_22] 4.6813173963877588e+01
pressure[sink_23] 8.0141591553588967e+01
pressure[sink_24] 3.2958007166159931e+00
pressure[sink_25] 7.3408668806923231e+01
pressure[sink_26] 6.1329984113666164e+01
pressure[sink_27] 8.0077660555142089e+01
pressure[sink_28] 7.6758625875958415e+01
pressure[sink_29] 7.7053908149575591e+01
interdiction[source_1,sink_3] 0
interdiction[innode_1,sink_16] 0
interdiction[innode_6,sink_13] 0
interdiction[sink_13,sink_14] 0
interdiction[sink_14,sink_10] 0
interdiction[sink_25,sink_26] 0
interdiction[sink_26,sink_9] 0
interdiction[sink_9,sink_18] 0
interdiction[sink_26,sink_4] 0
interdiction[sink_4,sink_20] 0
interdiction[sink_18,sink_6] 0
interdiction[sink_25,innode_8] 0
interdiction[sink_6,sink_7] 0
interdiction[sink_6,sink_22] 0
interdiction[sink_7,sink_24] 0
interdiction[sink_22,sink_1] 0
interdiction[sink_24,sink_21] 0
interdiction[sink_21,sink_12] 0
interdiction[sink_7,sink_5] 0
interdiction[sink_5,sink_17] 0
interdiction[sink_17,sink_4] 0
interdiction[sink_17,sink_8] 0
interdiction[sink_3,sink_23] 0
interdiction[sink_8,sink_20] 0
interdiction[sink_25,sink_20] 0
interdiction[sink_25,sink_15] 0
interdiction[sink_15,sink_29] 1
interdiction[sink_29,sink_28] 0
interdiction[sink_29,sink_2] 0
interdiction[sink_2,sink_15] 0
interdiction[sink_29,innode_7] 0
interdiction[innode_4,sink_19] 1
interdiction[sink_19,innode_3] 0
interdiction[innode_4,innode_5] 0
interdiction[sink_27,innode_5] 0
interdiction[sink_27,sink_19] 0
interdiction[sink_10,sink_11] 0
interdiction[sink_10,innode_2] 0
interdiction[sink_10,innode_3] 1
interdiction[innode_6,sink_25] 0
interdiction[sink_11,innode_1] 0
interdiction[sink_19,innode_2] 0
interdiction[source_3,innode_4] 0
interdiction[source_2,innode_7] 0
interdiction[sink_3,innode_8] 0
WCcheckFlow[source_1,sink_3] 39
WCcheckFlow[innode_1,sink_16] 1
WCcheckFlow[innode_6,sink_13] 13
WCcheckFlow[sink_13,sink_14] 12
WCcheckFlow[sink_14,sink_10] 11
WCcheckFlow[sink_25,sink_26] 15
WCcheckFlow[sink_26,sink_9] 12
WCcheckFlow[sink_9,sink_18] 11
WCcheckFlow[sink_26,sink_4] 2
WCcheckFlow[sink_4,sink_20] 1
WCcheckFlow[sink_18,sink_6] 10
WCcheckFlow[sink_25,innode_8] -36
WCcheckFlow[sink_6,sink_7] 7
WCcheckFlow[sink_6,sink_22] 2
WCcheckFlow[sink_7,sink_24] 3
WCcheckFlow[sink_22,sink_1] 1
WCcheckFlow[sink_24,sink_21] 2
WCcheckFlow[sink_21,sink_12] 1
WCcheckFlow[sink_7,sink_5] 3
WCcheckFlow[sink_5,sink_17] 2
WCcheckFlow[sink_17,sink_4] 0
WCcheckFlow[sink_17,sink_8] 1
WCcheckFlow[sink_3,sink_23] 1
WCcheckFlow[sink_8,sink_20] 0
WCcheckFlow[sink_25,sink_20] 0
WCcheckFlow[sink_25,sink_15] 6
WCcheckFlow[sink_15,sink_29] 0
WCcheckFlow[sink_29,sink_28] 1
WCcheckFlow[sink_29,sink_2] -4
WCcheckFlow[sink_2,sink_15] -5
WCcheckFlow[sink_29,innode_7] 2
WCcheckFlow[innode_4,sink_19] 0
WCcheckFlow[sink_19,innode_3] 1
WCcheckFlow[innode_4,innode_5] -2
WCcheckFlow[sink_27,innode_5] 3
WCcheckFlow[sink_27,sink_19] -4
WCcheckFlow[sink_10,sink_11] 3
WCcheckFlow[sink_10,innode_2] 7
WCcheckFlow[sink_10,innode_3] 0
WCcheckFlow[innode_6,sink_25] -14
WCcheckFlow[sink_11,innode_1] 2
WCcheckFlow[sink_19,innode_2] -6
WCcheckFlow[source_3,innode_4] -1
WCcheckFlow[source_2,innode_7] -1
WCcheckFlow[sink_3,innode_8] 37
